243/surrogate_problem/sol/surrogate2_9.sol
# Solution for model problem_
# Objective value = 2.7734701608839579e+05
x(0_0) 0
x(0_1) 0
x(0_2) 0
x(0_3) 0
x(0_4) 0
x(0_5) 0
x(0_6) 1
x(0_7) 0
x(0_8) 0
x(0_9) 0
x(0_10) 0
x(0_11) 0
x(0_12) 0
x(0_13) 0
x(0_14) 0
x(1_15) 0
x(1_16) 1
x(1_17) 0
x(1_18) 0
x(1_19) 0
x(1_20) 0
x(1_21) 0
x(1_22) 0
x(1_23) 0
x(1_24) 0
x(1_25) 0
x(1_26) 0
x(1_27) 0
x(2_28) 0
x(2_29) 0
x(2_30) 0
x(2_31) 0
x(2_32) 0
x(2_33) 0
x(2_34) 0
x(2_35) 0
x(2_36) 0
x(2_37) 0
x(2_38) 1
x(2_39) 0
x(3_40) 0
x(3_41) 0
x(3_42) 0
x(3_43) 0
x(3_44) 0
x(3_45) 0
x(3_46) 0
x(3_47) 0
x(3_48) 1
x(3_49) 0
x(3_50) 0
x(3_51) 0
x(3_52) 0
x(3_53) 0
x(3_54) 0
x(3_55) 0
x(3_56) 0
x(3_57) 0
x(3_58) 0
x(3_59) 0
x(4_60) 0
x(4_61) 0
x(4_62) 0
x(4_63) 0
x(4_64) 0
x(4_65) 0
x(4_66) 1
x(4_67) 0
x(4_68) 0
x(4_69) 0
x(4_70) 0
x(4_71) 0
x(4_72) 0
x(4_73) 0
x(4_74) 0
x(4_75) 0
x(4_76) 0
x(4_77) 0
x(4_78) 0
x(5_79) 0
x(5_80) 0
x(5_81) 0
x(5_82) 0
x(5_83) 0
x(5_84) 0
x(5_85) 1
x(5_86) 0
x(5_87) 0
x(5_88) 0
x(5_89) 0
x(5_90) 0
x(5_91) 0
x(5_92) 0
x(5_93) 0
x(5_94) 0
x(5_95) 0
x(6_96) 0
x(6_97) 0
x(6_98) 0
x(6_99) 0
x(6_100) 0
x(6_101) 0
x(6_102) 0
x(6_103) 0
x(6_104) 0
x(6_105) 0
x(6_106) 0
x(6_107) 0
x(6_108) 0
x(6_109) 0
x(6_110) 0
x(6_111) 1
x(6_112) 0
x(6_113) 0
x(6_114) 0
x(7_115) 0
x(7_116) 0
x(7_117) 1
x(7_118) 0
x(7_119) 0
x(7_120) 0
x(7_121) 0
x(7_122) 0
x(7_123) 0
x(7_124) 0
x(7_125) 0
x(7_126) 0
x(7_127) 0
x(7_128) 0
x(7_129) 0
x(7_130) 0
x(8_131) 0
x(8_132) 1
x(8_133) 0
x(8_134) 0
x(8_135) 0
x(8_136) 0
x(8_137) 0
x(8_138) 0
x(8_139) 0
x(8_140) 0
x(9_141) 0
x(9_142) 0
x(9_143) 0
x(9_144) 0
x(9_145) 0
x(9_146) 0
x(9_147) 0
x(9_148) 0
x(9_149) 1
x(9_150) 0
x(9_151) 0
x(10_152) 0
x(10_153) 0
x(10_154) 0
x(10_155) 0
x(10_156) 0
x(10_157) 0
x(10_158) 0
x(10_159) 0
x(10_160) 0
x(10_161) 0
x(10_162) 1
x(10_163) 0
x(10_164) 0
x(10_165) 0
x(10_166) 0
x(10_167) 0
x(10_168) 0
x(11_169) 0
x(11_170) 0
x(11_171) 0
x(11_172) 1
x(11_173) 0
x(11_174) 0
x(11_175) 0
x(11_176) 0
x(11_177) 0
x(11_178) 0
x(11_179) 0
x(11_180) 0
x(11_181) 0
x(12_182) 1
x(12_183) 0
x(12_184) 0
x(12_185) 0
x(12_186) 0
x(12_187) 0
x(12_188) 0
x(12_189) 0
x(12_190) 0
x(12_191) 0
x(12_192) 0
x(12_193) 0
x(12_194) 0
x(12_195) 0
x(12_196) 0
x(12_197) 0
x(12_198) 0
x(12_199) 0
x(13_200) 0
x(13_201) 0
x(13_202) 0
x(13_203) 0
x(13_204) 0
x(13_205) 0
x(13_206) 0
x(13_207) 0
x(13_208) 0
x(13_209) 0
x(13_210) 0
x(13_211) 0
x(13_212) 1
x(13_213) 0
x(13_214) 0
x(13_215) 0
x(13_216) 0
x(13_217) 0
x(13_218) 0
x(14_219) 0
x(14_220) 0
x(14_221) 0
x(14_222) 0
x(14_223) 0
x(14_224) 0
x(14_225) 0
x(14_226) 0
x(14_227) 1
x(14_228) 0
x(15_229) 0
x(15_230) 0
x(15_231) 0
x(15_232) 0
x(15_233) 0
x(15_234) 0
x(15_235) 0
x(15_236) 0
x(15_237) 0
x(15_238) 1
x(15_239) 0
x(15_240) 0
x(15_241) 0
x(15_242) 0
x(15_243) 0
x(15_244) 0
x(15_245) 0
x(15_246) 0
x(15_247) 0
x(16_248) 0
x(16_249) 0
x(16_250) 0
x(16_251) 0
x(16_252) 0
x(16_253) 0
x(16_254) 0
x(16_255) 0
x(16_256) 1
x(16_257) 0
x(16_258) 0
x(16_259) 0
x(17_260) 1
x(17_261) 0
x(17_262) 0
x(17_263) 0
x(17_264) 0
x(17_265) 0
x(17_266) 0
x(17_267) 0
x(17_268) 0
x(17_269) 0
x(18_270) 0
x(18_271) 0
x(18_272) 0
x(18_273) 0
x(18_274) 0
x(18_275) 0
x(18_276) 0
x(18_277) 0
x(18_278) 0
x(18_279) 1
x(18_280) 0
x(18_281) 0
x(18_282) 0
x(18_283) 0
x(18_284) 0
x(19_285) 0
x(19_286) 0
x(19_287) 0
x(19_288) 0
x(19_289) 0
x(19_290) 0
x(19_291) 1
x(19_292) 0
x(19_293) 0
x(19_294) 0
x(19_295) 0
x(20_296) 0
x(20_297) 0
x(20_298) 1
x(20_299) 0
x(20_300) 0
x(20_301) 0
x(20_302) 0
x(20_303) 0
x(20_304) 0
x(20_305) 0
x(20_306) 0
x(20_307) 0
x(20_308) 0
x(20_309) 0
x(20_310) 0
x(20_311) 0
x(21_312) 0
x(21_313) 0
x(21_314) 0
x(21_315) 0
x(21_316) 0
x(21_317) 0
x(21_318) 0
x(21_319) 0
x(21_320) 0
x(21_321) 0
x(21_322) 0
x(21_323) 0
x(21_324) 0
x(21_325) 0
x(21_326) 1
x(21_327) 0
x(22_328) 0
x(22_329) 0
x(22_330) 0
x(22_331) 0
x(22_332) 0
x(22_333) 0
x(22_334) 0
x(22_335) 0
x(22_336) 0
x(22_337) 0
x(22_338) 1
x(22_339) 0
x(22_340) 0
x(22_341) 0
x(22_342) 0
x(22_343) 0
x(22_344) 0
x(22_345) 0
x(22_346) 0
x(22_347) 0
x(23_348) 0
x(23_349) 0
x(23_350) 0
x(23_351) 0
x(23_352) 0
x(23_353) 0
x(23_354) 0
x(23_355) 0
x(23_356) 0
x(23_357) 0
x(23_358) 0
x(23_359) 1
x(23_360) 0
x(23_361) 0
x(23_362) 0
x(24_363) 0
x(24_364) 0
x(24_365) 0
x(24_366) 0
x(24_367) 0
x(24_368) 0
x(24_369) 0
x(24_370) 0
x(24_371) 0
x(24_372) 0
x(24_373) 0
x(24_374) 0
x(24_375) 1
x(24_376) 0
x(24_377) 0
x(24_378) 0
x(25_379) 0
x(25_380) 0
x(25_381) 0
x(25_382) 1
x(25_383) 0
x(25_384) 0
x(25_385) 0
x(25_386) 0
x(25_387) 0
x(25_388) 0
x(25_389) 0
x(25_390) 0
x(25_391) 0
x(25_392) 0
x(25_393) 0
x(26_394) 0
x(26_395) 0
x(26_396) 1
x(26_397) 0
x(26_398) 0
x(26_399) 0
x(26_400) 0
x(26_401) 0
x(26_402) 0
x(26_403) 0
x(26_404) 0
x(27_405) 0
x(27_406) 0
x(27_407) 0
x(27_408) 0
x(27_409) 0
x(27_410) 0
x(27_411) 0
x(27_412) 0
x(27_413) 0
x(27_414) 0
x(27_415) 0
x(27_416) 0
x(27_417) 0
x(27_418) 0
x(27_419) 0
x(27_420) 1
x(28_421) 0
x(28_422) 0
x(28_423) 0
x(28_424) 0
x(28_425) 0
x(28_426) 0
x(28_427) 0
x(28_428) 1
x(28_429) 0
x(28_430) 0
x(28_431) 0
x(28_432) 0
x(29_433) 1
x(29_434) 0
x(29_435) 0
x(29_436) 0
x(29_437) 0
x(29_438) 0
x(29_439) 0
x(29_440) 0
x(29_441) 0
x(29_442) 0
x(29_443) 0
x(29_444) 0
x(29_445) 0
x(29_446) 0
x(29_447) 0
x(29_448) 0
x(30_449) 0
x(30_450) 0
x(30_451) 0
x(30_452) 0
x(30_453) 0
x(30_454) 0
x(30_455) 0
x(30_456) 0
x(30_457) 1
x(30_458) 0
x(30_459) 0
x(30_460) 0
x(30_461) 0
x(30_462) 0
x(30_463) 0
x(30_464) 0
x(30_465) 0
x(30_466) 0
x(30_467) 0
x(31_468) 0
x(31_469) 0
x(31_470) 0
x(31_471) 0
x(31_472) 0
x(31_473) 0
x(31_474) 1
x(31_475) 0
x(31_476) 0
x(31_477) 0
x(31_478) 0
x(31_479) 0
x(31_480) 0
x(31_481) 0
x(31_482) 0
x(31_483) 0
x(31_484) 0
x(31_485) 0
x(31_486) 0
x(32_487) 0
x(32_488) 0
x(32_489) 0
x(32_490) 0
x(32_491) 0
x(32_492) 0
x(32_493) 0
x(32_494) 1
x(32_495) 0
x(32_496) 0
x(33_497) 0
x(33_498) 0
x(33_499) 0
x(33_500) 0
x(33_501) 0
x(33_502) 1
x(33_503) 0
x(33_504) 0
x(33_505) 0
x(33_506) 0
x(33_507) 0
x(34_508) 0
x(34_509) 0
x(34_510) 0
x(34_511) 0
x(34_512) 0
x(34_513) 0
x(34_514) 0
x(34_515) 0
x(34_516) 0
x(34_517) 0
x(34_518) 1
x(34_519) 0
x(34_520) 0
x(34_521) 0
x(34_522) 0
x(34_523) 0
x(35_524) 0
x(35_525) 0
x(35_526) 0
x(35_527) 0
x(35_528) 0
x(35_529) 0
x(35_530) 1
x(35_531) 0
x(35_532) 0
x(35_533) 0
x(35_534) 0
x(35_535) 0
x(36_536) 0
x(36_537) 0
x(36_538) 0
x(36_539) 0
x(36_540) 0
x(36_541) 0
x(36_542) 0
x(36_543) 0
x(36_544) 0
x(36_545) 0
x(36_546) 0
x(36_547) 1
x(36_548) 0
x(37_549) 0
x(37_550) 0
x(37_551) 1
x(37_552) 0
x(37_553) 0
x(37_554) 0
x(37_555) 0
x(37_556) 0
x(37_557) 0
x(37_558) 0
x(37_559) 0
x(37_560) 0
x(37_561) 0
x(37_562) 0
x(38_563) 1
x(38_564) 0
x(38_565) 0
x(38_566) 0
x(38_567) 0
x(38_568) 0
x(38_569) 0
x(38_570) 0
x(38_571) 0
x(38_572) 0
x(38_573) 0
x(38_574) 0
x(38_575) 0
x(38_576) 0
x(38_577) 0
x(38_578) 0
x(38_579) 0
x(38_580) 0
x(38_581) 0
x(38_582) 0
x(39_583) 0
x(39_584) 0
x(39_585) 0
x(39_586) 0
x(39_587) 0
x(39_588) 0
x(39_589) 0
x(39_590) 0
x(39_591) 0
x(39_592) 0
x(39_593) 0
x(39_594) 0
x(39_595) 1
x(39_596) 0
x(39_597) 0
x(39_598) 0
x(40_599) 0
x(40_600) 0
x(40_601) 0
x(40_602) 0
x(40_603) 0
x(40_604) 0
x(40_605) 0
x(40_606) 0
x(40_607) 1
x(40_608) 0
x(40_609) 0
x(40_610) 0
x(40_611) 0
x(40_612) 0
x(40_613) 0
x(40_614) 0
x(40_615) 0
x(40_616) 0
x(41_617) 0
x(41_618) 0
x(41_619) 0
x(41_620) 0
x(41_621) 0
x(41_622) 0
x(41_623) 0
x(41_624) 0
x(41_625) 0
x(41_626) 0
x(41_627) 0
x(41_628) 1
x(41_629) 0
x(41_630) 0
x(41_631) 0
x(41_632) 0
x(41_633) 0
x(41_634) 0
x(41_635) 0
x(41_636) 0
x(42_637) 0
x(42_638) 0
x(42_639) 1
x(42_640) 0
x(42_641) 0
x(42_642) 0
x(42_643) 0
x(42_644) 0
x(42_645) 0
x(42_646) 0
x(42_647) 0
x(42_648) 0
x(42_649) 0
x(42_650) 0
x(42_651) 0
x(42_652) 0
x(43_653) 0
x(43_654) 0
x(43_655) 0
x(43_656) 1
x(43_657) 0
x(43_658) 0
x(43_659) 0
x(43_660) 0
x(43_661) 0
x(43_662) 0
x(44_663) 0
x(44_664) 0
x(44_665) 0
x(44_666) 0
x(44_667) 0
x(44_668) 0
x(44_669) 0
x(44_670) 0
x(44_671) 0
x(44_672) 0
x(44_673) 0
x(44_674) 0
x(44_675) 0
x(44_676) 0
x(44_677) 0
x(44_678) 0
x(44_679) 1
x(44_680) 0
x(44_681) 0
x(44_682) 0
x(45_683) 0
x(45_684) 0
x(45_685) 0
x(45_686) 0
x(45_687) 1
x(45_688) 0
x(45_689) 0
x(45_690) 0
x(45_691) 0
x(45_692) 0
x(45_693) 0
x(45_694) 0
x(45_695) 0
x(45_696) 0
x(45_697) 0
x(45_698) 0
x(45_699) 0
x(46_700) 0
x(46_701) 0
x(46_702) 0
x(46_703) 0
x(46_704) 0
x(46_705) 0
x(46_706) 0
x(46_707) 1
x(46_708) 0
x(46_709) 0
x(46_710) 0
x(46_711) 0
x(46_712) 0
x(46_713) 0
x(46_714) 0
x(46_715) 0
x(47_716) 0
x(47_717) 0
x(47_718) 0
x(47_719) 0
x(47_720) 0
x(47_721) 1
x(47_722) 0
x(47_723) 0
x(47_724) 0
x(47_725) 0
x(47_726) 0
x(47_727) 0
x(47_728) 0
x(48_729) 1
x(48_730) 0
x(48_731) 0
x(48_732) 0
x(48_733) 0
x(48_734) 0
x(48_735) 0
x(48_736) 0
x(48_737) 0
x(48_738) 0
x(48_739) 0
x(48_740) 0
x(49_741) 0
x(49_742) 0
x(49_743) 1
x(49_744) 0
x(49_745) 0
x(49_746) 0
x(49_747) 0
x(49_748) 0
x(49_749) 0
x(49_750) 0
x(49_751) 0
x(49_752) 0
x(49_753) 0
x(49_754) 0
x(49_755) 0
x(49_756) 0
x(49_757) 0
x(49_758) 0
x(49_759) 0
x(50_760) 0
x(50_761) 0
x(50_762) 0
x(50_763) 0
x(50_764) 0
x(50_765) 0
x(50_766) 0
x(50_767) 0
x(50_768) 1
x(50_769) 0
x(50_770) 0
x(50_771) 0
x(50_772) 0
x(51_773) 0
x(51_774) 0
x(51_775) 0
x(51_776) 0
x(51_777) 0
x(51_778) 0
x(51_779) 0
x(51_780) 0
x(51_781) 1
x(51_782) 0
x(51_783) 0
x(51_784) 0
x(51_785) 0
x(51_786) 0
x(51_787) 0
x(51_788) 0
x(51_789) 0
x(51_790) 0
x(51_791) 0
x(52_792) 0
x(52_793) 0
x(52_794) 1
x(52_795) 0
x(52_796) 0
x(52_797) 0
x(52_798) 0
x(52_799) 0
x(52_800) 0
x(52_801) 0
x(53_802) 1
x(53_803) 0
x(53_804) 0
x(53_805) 0
x(53_806) 0
x(53_807) 0
x(53_808) 0
x(53_809) 0
x(53_810) 0
x(53_811) 0
x(53_812) 0
x(53_813) 0
x(53_814) 0
x(53_815) 0
x(53_816) 0
x(53_817) 0
x(53_818) 0
x(54_819) 0
x(54_820) 0
x(54_821) 0
x(54_822) 0
x(54_823) 0
x(54_824) 0
x(54_825) 0
x(54_826) 1
x(54_827) 0
x(54_828) 0
x(54_829) 0
x(54_830) 0
x(54_831) 0
x(54_832) 0
x(54_833) 0
x(54_834) 0
x(55_835) 0
x(55_836) 0
x(55_837) 0
x(55_838) 0
x(55_839) 0
x(55_840) 0
x(55_841) 0
x(55_842) 0
x(55_843) 0
x(55_844) 1
x(55_845) 0
x(55_846) 0
x(55_847) 0
x(55_848) 0
x(55_849) 0
x(55_850) 0
x(55_851) 0
x(55_852) 0
x(56_853) 1
x(56_854) 0
x(56_855) 0
x(56_856) 0
x(56_857) 0
x(56_858) 0
x(56_859) 0
x(56_860) 0
x(56_861) 0
x(56_862) 0
x(56_863) 0
x(56_864) 0
x(57_865) 0
x(57_866) 0
x(57_867) 0
x(57_868) 0
x(57_869) 1
x(57_870) 0
x(57_871) 0
x(57_872) 0
x(57_873) 0
x(57_874) 0
x(57_875) 0
x(57_876) 0
x(57_877) 0
x(57_878) 0
x(57_879) 0
x(57_880) 0
x(58_881) 0
x(58_882) 0
x(58_883) 0
x(58_884) 0
x(58_885) 0
x(58_886) 0
x(58_887) 0
x(58_888) 1
x(58_889) 0
x(58_890) 0
x(58_891) 0
x(58_892) 0
x(58_893) 0
x(58_894) 0
x(58_895) 0
x(58_896) 0
x(58_897) 0
x(58_898) 0
x(59_899) 0
x(59_900) 0
x(59_901) 0
x(59_902) 0
x(59_903) 0
x(59_904) 0
x(59_905) 1
x(59_906) 0
x(59_907) 0
x(59_908) 0
x(59_909) 0
x(60_910) 1
x(60_911) 0
x(60_912) 0
x(60_913) 0
x(60_914) 0
x(60_915) 0
x(60_916) 0
x(60_917) 0
x(60_918) 0
x(60_919) 0
x(60_920) 0
x(60_921) 0
x(60_922) 0
x(60_923) 0
x(60_924) 0
x(60_925) 0
x(60_926) 0
x(60_927) 0
x(61_928) 0
x(61_929) 0
x(61_930) 0
x(61_931) 0
x(61_932) 0
x(61_933) 0
x(61_934) 0
x(61_935) 0
x(61_936) 0
x(61_937) 0
x(61_938) 0
x(61_939) 0
x(61_940) 0
x(61_941) 0
x(61_942) 0
x(61_943) 0
x(61_944) 0
x(61_945) 0
x(61_946) 0
x(61_947) 1
x(62_948) 0
x(62_949) 0
x(62_950) 0
x(62_951) 0
x(62_952) 0
x(62_953) 0
x(62_954) 0
x(62_955) 0
x(62_956) 0
x(62_957) 1
x(62_958) 0
x(62_959) 0
x(62_960) 0
x(62_961) 0
x(62_962) 0
x(63_963) 0
x(63_964) 0
x(63_965) 0
x(63_966) 0
x(63_967) 1
x(63_968) 0
x(63_969) 0
x(63_970) 0
x(63_971) 0
x(63_972) 0
x(63_973) 0
x(63_974) 0
x(63_975) 0
x(63_976) 0
x(63_977) 0
x(63_978) 0
x(63_979) 0
x(63_980) 0
x(64_981) 0
x(64_982) 0
x(64_983) 0
x(64_984) 0
x(64_985) 0
x(64_986) 0
x(64_987) 0
x(64_988) 1
x(64_989) 0
x(64_990) 0
x(64_991) 0
x(65_992) 0
x(65_993) 0
x(65_994) 0
x(65_995) 0
x(65_996) 0
x(65_997) 0
x(65_998) 0
x(65_999) 1
x(65_1000) 0
x(65_1001) 0
x(65_1002) 0
x(66_1003) 0
x(66_1004) 0
x(66_1005) 1
x(66_1006) 0
x(66_1007) 0
x(66_1008) 0
x(66_1009) 0
x(66_1010) 0
x(66_1011) 0
x(66_1012) 0
x(66_1013) 0
x(66_1014) 0
x(67_1015) 0
x(67_1016) 0
x(67_1017) 0
x(67_1018) 0
x(67_1019) 0
x(67_1020) 0
x(67_1021) 0
x(67_1022) 0
x(67_1023) 0
x(67_1024) 0
x(67_1025) 0
x(67_1026) 1
x(67_1027) 0
x(67_1028) 0
x(67_1029) 0
x(67_1030) 0
x(67_1031) 0
x(67_1032) 0
x(68_1033) 0
x(68_1034) 0
x(68_1035) 0
x(68_1036) 0
x(68_1037) 0
x(68_1038) 0
x(68_1039) 0
x(68_1040) 0
x(68_1041) 0
x(68_1042) 0
x(68_1043) 0
x(68_1044) 1
x(68_1045) 0
x(68_1046) 0
x(69_1047) 0
x(69_1048) 0
x(69_1049) 0
x(69_1050) 0
x(69_1051) 0
x(69_1052) 0
x(69_1053) 1
x(69_1054) 0
x(69_1055) 0
x(69_1056) 0
x(69_1057) 0
x(69_1058) 0
x(69_1059) 0
x(69_1060) 0
x(69_1061) 0
x(69_1062) 0
x(70_1063) 0
x(70_1064) 1
x(70_1065) 0
x(70_1066) 0
x(70_1067) 0
x(70_1068) 0
x(70_1069) 0
x(70_1070) 0
x(70_1071) 0
x(70_1072) 0
x(70_1073) 0
x(70_1074) 0
x(70_1075) 0
x(70_1076) 0
x(70_1077) 0
x(70_1078) 0
x(71_1079) 0
x(71_1080) 0
x(71_1081) 0
x(71_1082) 0
x(71_1083) 0
x(71_1084) 0
x(71_1085) 0
x(71_1086) 0
x(71_1087) 0
x(71_1088) 0
x(71_1089) 0
x(71_1090) 0
x(71_1091) 0
x(71_1092) 1
x(72_1093) 0
x(72_1094) 0
x(72_1095) 0
x(72_1096) 0
x(72_1097) 0
x(72_1098) 0
x(72_1099) 0
x(72_1100) 1
x(72_1101) 0
x(72_1102) 0
x(72_1103) 0
x(72_1104) 0
x(72_1105) 0
x(72_1106) 0
x(72_1107) 0
x(72_1108) 0
x(72_1109) 0
x(73_1110) 1
x(73_1111) 0
x(73_1112) 0
x(73_1113) 0
x(73_1114) 0
x(73_1115) 0
x(73_1116) 0
x(73_1117) 0
x(73_1118) 0
x(73_1119) 0
x(73_1120) 0
x(73_1121) 0
x(73_1122) 0
x(73_1123) 0
x(73_1124) 0
x(73_1125) 0
x(73_1126) 0
x(73_1127) 0
x(74_1128) 0
x(74_1129) 0
x(74_1130) 0
x(74_1131) 0
x(74_1132) 0
x(74_1133) 0
x(74_1134) 0
x(74_1135) 0
x(74_1136) 0
x(74_1137) 0
x(74_1138) 1
x(74_1139) 0
x(74_1140) 0
x(75_1141) 0
x(75_1142) 0
x(75_1143) 0
x(75_1144) 0
x(75_1145) 1
x(75_1146) 0
x(75_1147) 0
x(75_1148) 0
x(75_1149) 0
x(75_1150) 0
x(75_1151) 0
x(75_1152) 0
x(75_1153) 0
x(75_1154) 0
x(75_1155) 0
x(75_1156) 0
x(75_1157) 0
x(75_1158) 0
x(75_1159) 0
x(76_1160) 0
x(76_1161) 0
x(76_1162) 1
x(76_1163) 0
x(76_1164) 0
x(76_1165) 0
x(76_1166) 0
x(76_1167) 0
x(76_1168) 0
x(76_1169) 0
x(76_1170) 0
x(76_1171) 0
x(76_1172) 0
x(76_1173) 0
x(76_1174) 0
x(76_1175) 0
x(77_1176) 0
x(77_1177) 0
x(77_1178) 0
x(77_1179) 0
x(77_1180) 1
x(77_1181) 0
x(77_1182) 0
x(77_1183) 0
x(77_1184) 0
x(77_1185) 0
x(77_1186) 0
x(77_1187) 0
x(77_1188) 0
x(77_1189) 0
x(77_1190) 0
x(78_1191) 0
x(78_1192) 0
x(78_1193) 0
x(78_1194) 1
x(78_1195) 0
x(78_1196) 0
x(78_1197) 0
x(78_1198) 0
x(78_1199) 0
x(78_1200) 0
x(78_1201) 0
x(78_1202) 0
x(78_1203) 0
x(78_1204) 0
x(78_1205) 0
x(78_1206) 0
x(78_1207) 0
x(78_1208) 0
x(79_1209) 0
x(79_1210) 0
x(79_1211) 0
x(79_1212) 0
x(79_1213) 0
x(79_1214) 0
x(79_1215) 0
x(79_1216) 1
x(79_1217) 0
x(79_1218) 0
x(79_1219) 0
x(79_1220) 0
x(79_1221) 0
x(80_1222) 0
x(80_1223) 0
x(80_1224) 0
x(80_1225) 0
x(80_1226) 0
x(80_1227) 0
x(80_1228) 1
x(80_1229) 0
x(80_1230) 0
x(80_1231) 0
x(80_1232) 0
x(80_1233) 0
x(80_1234) 0
x(80_1235) 0
x(80_1236) 0
x(80_1237) 0
x(80_1238) 0
x(80_1239) 0
x(80_1240) 0
x(80_1241) 0
x(81_1242) 0
x(81_1243) 0
x(81_1244) 0
x(81_1245) 0
x(81_1246) 0
x(81_1247) 0
x(81_1248) 0
x(81_1249) 0
x(81_1250) 0
x(81_1251) 0
x(81_1252) 0
x(81_1253) 1
x(81_1254) 0
x(81_1255) 0
x(82_1256) 0
x(82_1257) 0
x(82_1258) 0
x(82_1259) 1
x(82_1260) 0
x(82_1261) 0
x(82_1262) 0
x(82_1263) 0
x(82_1264) 0
x(82_1265) 0
x(82_1266) 0
x(82_1267) 0
x(82_1268) 0
x(83_1269) 0
x(83_1270) 0
x(83_1271) 0
x(83_1272) 0
x(83_1273) 0
x(83_1274) 0
x(83_1275) 0
x(83_1276) 0
x(83_1277) 0
x(83_1278) 0
x(83_1279) 0
x(83_1280) 1
x(83_1281) 0
x(83_1282) 0
x(83_1283) 0
x(83_1284) 0
x(83_1285) 0
x(83_1286) 0
x(83_1287) 0
x(84_1288) 0
x(84_1289) 0
x(84_1290) 0
x(84_1291) 0
x(84_1292) 0
x(84_1293) 0
x(84_1294) 0
x(84_1295) 0
x(84_1296) 0
x(84_1297) 0
x(84_1298) 0
x(84_1299) 1
x(84_1300) 0
x(84_1301) 0
x(84_1302) 0
x(85_1303) 0
x(85_1304) 0
x(85_1305) 1
x(85_1306) 0
x(85_1307) 0
x(85_1308) 0
x(85_1309) 0
x(85_1310) 0
x(85_1311) 0
x(85_1312) 0
x(85_1313) 0
x(85_1314) 0
x(85_1315) 0
x(85_1316) 0
x(85_1317) 0
x(85_1318) 0
x(86_1319) 1
x(86_1320) 0
x(86_1321) 0
x(86_1322) 0
x(86_1323) 0
x(86_1324) 0
x(86_1325) 0
x(86_1326) 0
x(86_1327) 0
x(86_1328) 0
x(87_1329) 0
x(87_1330) 0
x(87_1331) 0
x(87_1332) 0
x(87_1333) 0
x(87_1334) 0
x(87_1335) 0
x(87_1336) 1
x(87_1337) 0
x(87_1338) 0
x(87_1339) 0
x(87_1340) 0
x(87_1341) 0
x(87_1342) 0
x(87_1343) 0
x(88_1344) 0
x(88_1345) 0
x(88_1346) 0
x(88_1347) 0
x(88_1348) 0
x(88_1349) 0
x(88_1350) 0
x(88_1351) 0
x(88_1352) 0
x(88_1353) 0
x(88_1354) 0
x(88_1355) 0
x(88_1356) 0
x(88_1357) 0
x(88_1358) 1
x(88_1359) 0
x(88_1360) 0
x(89_1361) 1
x(89_1362) 0
x(89_1363) 0
x(89_1364) 0
x(89_1365) 0
x(89_1366) 0
x(89_1367) 0
x(89_1368) 0
x(89_1369) 0
x(89_1370) 0
x(90_1371) 0
x(90_1372) 0
x(90_1373) 0
x(90_1374) 1
x(90_1375) 0
x(90_1376) 0
x(90_1377) 0
x(90_1378) 0
x(90_1379) 0
x(90_1380) 0
x(90_1381) 0
x(90_1382) 0
x(91_1383) 0
x(91_1384) 0
x(91_1385) 0
x(91_1386) 0
x(91_1387) 0
x(91_1388) 0
x(91_1389) 0
x(91_1390) 0
x(91_1391) 0
x(91_1392) 0
x(91_1393) 0
x(91_1394) 0
x(91_1395) 1
x(92_1396) 0
x(92_1397) 0
x(92_1398) 0
x(92_1399) 0
x(92_1400) 0
x(92_1401) 0
x(92_1402) 0
x(92_1403) 1
x(92_1404) 0
x(92_1405) 0
x(92_1406) 0
x(93_1407) 0
x(93_1408) 0
x(93_1409) 0
x(93_1410) 0
x(93_1411) 0
x(93_1412) 0
x(93_1413) 0
x(93_1414) 1
x(93_1415) 0
x(93_1416) 0
x(93_1417) 0
x(93_1418) 0
x(93_1419) 0
x(93_1420) 0
x(93_1421) 0
x(93_1422) 0
x(93_1423) 0
x(93_1424) 0
x(93_1425) 0
x(94_1426) 0
x(94_1427) 0
x(94_1428) 0
x(94_1429) 0
x(94_1430) 0
x(94_1431) 0
x(94_1432) 0
x(94_1433) 0
x(94_1434) 0
x(94_1435) 0
x(94_1436) 0
x(94_1437) 1
x(94_1438) 0
x(94_1439) 0
x(95_1440) 1
x(95_1441) 0
x(95_1442) 0
x(95_1443) 0
x(95_1444) 0
x(95_1445) 0
x(95_1446) 0
x(95_1447) 0
x(95_1448) 0
x(95_1449) 0
x(95_1450) 0
x(95_1451) 0
x(95_1452) 0
x(95_1453) 0
x(95_1454) 0
x(95_1455) 0
x(96_1456) 0
x(96_1457) 0
x(96_1458) 0
x(96_1459) 0
x(96_1460) 0
x(96_1461) 1
x(96_1462) 0
x(96_1463) 0
x(96_1464) 0
x(96_1465) 0
x(96_1466) 0
x(96_1467) 0
x(96_1468) 0
x(96_1469) 0
x(96_1470) 0
x_1_0 4.8758654202986509e+02
s_1_0 0
z_1_0 0
x_1_1 4.8267740414559375e+02
s_1_1 0
z_1_1 0
x_1_2 4.8522612069686875e+02
s_1_2 0
z_1_2 0
x_1_3 0
s_1_3 1.5427448015398113e+00
z_1_3 1
x_1_4 4.8295280217379332e+02
s_1_4 0
z_1_4 0
x_1_5 0
s_1_5 1.1252931253693532e+00
z_1_5 1
x_1_6 4.8485627334285527e+02
s_1_6 0
z_1_6 0
x_1_7 0
s_1_7 1.9112242912233341e+00
z_1_7 1
x_1_8 4.8160585129912943e+02
s_1_8 0
z_1_8 0
x_1_9 4.8791987836896442e+02
s_1_9 0
z_1_9 0
x_1_10 0
s_1_10 2.04799633694347
z_1_10 1
x_1_11 0
s_1_11 1.4189183625785518e+00
z_1_11 1
x_1_12 4.8773300038394518e+02
s_1_12 0
z_1_12 0
x_1_13 0
s_1_13 1.3481453771819361e+00
z_1_13 1
x_1_14 0
s_1_14 9.4631131643836852e-01
z_1_14 1
x_1_15 0
s_1_15 1.0773430455592461e+00
z_1_15 1
x_1_16 4.8225047855891171e+02
s_1_16 0
z_1_16 0
x_1_17 4.8249667767435312e+02
s_1_17 0
z_1_17 0
x_1_18 0
s_1_18 1.75843854372215
z_1_18 1
x_1_19 4.8713426776230335e+02
s_1_19 0
z_1_19 0
x_1_20 0
s_1_20 1.5197880043997429e+00
z_1_20 1
x_1_21 0
s_1_21 1.2587967345316429e+00
z_1_21 1
x_1_22 4.8707313980557956e+02
s_1_22 0
z_1_22 0
x_1_23 0
s_1_23 1.8707386429014150e+00
z_1_23 1
x_1_24 4.8570305609179195e+02
s_1_24 0
z_1_24 0
x_1_25 0
s_1_25 2.0240685891785688e+00
z_1_25 1
x_1_26 0
s_1_26 2.0277487231069244e+00
z_1_26 1
x_1_27 0
s_1_27 1.8872517290728865e+00
z_1_27 1
x_1_28 0
s_1_28 1.8119066312210634e+00
z_1_28 1
x_1_29 0
s_1_29 1.7108260837849230e+00
z_1_29 1
x_1_30 0
s_1_30 1.4830187598126940e+00
z_1_30 1
x_1_31 4.8255637062332971e+02
s_1_31 0
z_1_31 0
x_1_32 4.8786404731369112e+02
s_1_32 0
z_1_32 0
x_1_33 4.8614088691491634e+02
s_1_33 0
z_1_33 0
x_1_34 4.8492868486465886e+02
s_1_34 0
z_1_34 0
x_1_35 4.8743667204969097e+02
s_1_35 0
z_1_35 0
x_1_36 0
s_1_36 1.1804971410274447e+00
z_1_36 1
x_1_37 0
s_1_37 1.5291602069628425e+00
z_1_37 1
x_1_38 4.8784363180142827e+02
s_1_38 0
z_1_38 0
x_1_39 4.8361384387174621e+02
s_1_39 0
z_1_39 0
x_1_40 4.8342984017916024e+02
s_1_40 0
z_1_40 0
x_1_41 0
s_1_41 1.4116463272221154e+00
z_1_41 1
x_1_42 0
s_1_42 1.0514895971864462e+00
z_1_42 1
x_1_43 486.033376915846
s_1_43 0
z_1_43 0
x_1_44 4.8567004436731804e+02
s_1_44 0
z_1_44 0
x_1_45 4.8696626968942337e+02
s_1_45 0
z_1_45 0
x_1_46 4.8117094957717927e+02
s_1_46 0
z_1_46 0
x_1_47 4.8349017753324006e+02
s_1_47 0
z_1_47 0
x_1_48 4.8585409591626376e+02
s_1_48 0
z_1_48 0
x_1_49 4.8394944778643548e+02
s_1_49 0
z_1_49 0
x_1_50 0
s_1_50 1.4234730032039806e+00
z_1_50 1
x_1_51 0
s_1_51 1.3098475260194391e+00
z_1_51 1
x_1_52 4.8581292058248073e+02
s_1_52 0
z_1_52 0
x_1_53 0
s_1_53 2.3028862198470961e+00
z_1_53 1
x_1_54 4.8460683055454865e+02
s_1_54 0
z_1_54 0
x_1_55 4.8444519386137836e+02
s_1_55 0
z_1_55 0
x_1_56 4.8345963828265667e+02
s_1_56 0
z_1_56 0
x_1_57 4.8747601630352437e+02
s_1_57 0
z_1_57 0
x_1_58 0
s_1_58 1.7424620224046521e+00
z_1_58 1
x_1_59 0
s_1_59 7.6723538833903149e-01
z_1_59 1
x_1_60 0
s_1_60 9.5092317272792570e-01
z_1_60 1
x_1_61 4.8447325473790988e+02
s_1_61 0
z_1_61 0
x_1_62 0
s_1_62 1.4757876118260356e+00
z_1_62 1
x_1_63 0
s_1_63 1.8594764322042465e+00
z_1_63 1
x_1_64 0
s_1_64 1.5854617492877878e+00
z_1_64 1
x_1_65 0
s_1_65 1.4684447775944136e+00
z_1_65 1
x_1_66 0
s_1_66 1.1372359615343157e+00
z_1_66 1
x_1_67 0
s_1_67 1.7135680253850296e+00
z_1_67 1
x_1_68 4.8762550435084268e+02
s_1_68 0
z_1_68 0
x_1_69 0
s_1_69 1.1552463112748228e+00
z_1_69 1
x_1_70 0
s_1_70 1.9293295465759002e+00
z_1_70 1
x_1_71 4.8786429057549685e+02
s_1_71 0
z_1_71 0
x_1_72 0
s_1_72 1.5341252001162502e+00
z_1_72 1
x_1_73 4.8519475903641433e+02
s_1_73 0
z_1_73 0
x_1_74 0
s_1_74 2.4915439984470140e+00
z_1_74 1
x_1_75 0
s_1_75 8.2748409161285963e-01
z_1_75 1
x_1_76 0
s_1_76 9.2778995733533520e-01
z_1_76 1
x_1_77 0
s_1_77 1.8714839893509634e+00
z_1_77 1
x_1_78 0
s_1_78 1.4172375305206515e+00
z_1_78 1
x_1_79 0
s_1_79 2.1634856377495453e+00
z_1_79 1
x_1_80 4.8705591400849517e+02
s_1_80 0
z_1_80 0
x_1_81 4.8541627115302254e+02
s_1_81 0
z_1_81 0
x_1_82 4.8471359082171693e+02
s_1_82 0
z_1_82 0
x_1_83 4.8662895484128967e+02
s_1_83 0
z_1_83 0
x_1_84 0
s_1_84 1.4900724415347213e+00
z_1_84 1
x_1_85 0
s_1_85 1.8864707897882909e+00
z_1_85 1
x_1_86 0
s_1_86 1.1407551919701291e+00
z_1_86 1
x_1_87 4.8531373968068510e+02
s_1_87 0
z_1_87 0
x_1_88 4.8716974573582411e+02
s_1_88 0
z_1_88 0
x_1_89 0
s_1_89 1.8720529729907867e+00
z_1_89 1
x_1_90 0
s_1_90 1.0491158121149056e+00
z_1_90 1
x_1_91 4.8372713313531131e+02
s_1_91 0
z_1_91 0
x_1_92 4.8695709983259439e+02
s_1_92 0
z_1_92 0
x_1_93 0
s_1_93 8.1081442417053040e-01
z_1_93 1
x_1_94 0
s_1_94 6.2741029218886979e-01
z_1_94 1
x_1_95 0
s_1_95 1.4380090682316222e+00
z_1_95 1
x_1_96 0
s_1_96 1.3823355878830625e+00
z_1_96 1
x_1_97 0
s_1_97 1.3841177843969490e+00
z_1_97 1
x_1_98 0
s_1_98 1.6627890783420298e+00
z_1_98 1
x_1_99 0
s_1_99 9.6923281563795172e-01
z_1_99 1
x_1_100 4.8432039795070887e+02
s_1_100 0
z_1_100 0
x_1_101 4.8482605488412082e+02
s_1_101 0
z_1_101 0
x_1_102 0
s_1_102 6.4986811094604491e-01
z_1_102 1
x_1_103 0
s_1_103 1.68382175374677
z_1_103 1
x_1_104 4.8468944188114256e+02
s_1_104 0
z_1_104 0
x_1_105 0
s_1_105 1.4275584426359273e+00
z_1_105 1
x_1_106 4.8279675670259167e+02
s_1_106 0
z_1_106 0
x_1_107 0
s_1_107 1.5783315249718726e+00
z_1_107 1
x_1_108 4.8717705453350209e+02
s_1_108 0
z_1_108 0
x_1_109 4.8402036108262837e+02
s_1_109 0
z_1_109 0
x_1_110 4.8613358935248107e+02
s_1_110 0
z_1_110 0
x_1_111 4.8760132245090790e+02
s_1_111 0
z_1_111 0
x_1_112 0
s_1_112 1.0989821649782243e+00
z_1_112 1
x_1_113 4.8516735903266817e+02
s_1_113 0
z_1_113 0
x_1_114 0
s_1_114 1.9762165295542218e+00
z_1_114 1
x_1_115 4.8765162293892354e+02
s_1_115 0
z_1_115 0
x_1_116 0
s_1_116 2.2160042891919147e+00
z_1_116 1
x_1_117 0
s_1_117 1.7777072971803136e+00
z_1_117 1
x_1_118 0
s_1_118 1.4171450349967927e+00
z_1_118 1
x_1_119 4.8330590341892093e+02
s_1_119 0
z_1_119 0
x_1_120 0
s_1_120 9.9037703756766859e-01
z_1_120 1
x_1_121 4.8733251543669030e+02
s_1_121 0
z_1_121 0
x_1_122 0
s_1_122 1.5423030426609330e+00
z_1_122 1
x_1_123 0
s_1_123 2.4451164377678651e+00
z_1_123 1
x_1_124 0
s_1_124 1.6303946304033161e+00
z_1_124 1
x_1_125 0
s_1_125 2.1913154873473104e+00
z_1_125 1
x_1_126 0
s_1_126 1.1877923482388724e+00
z_1_126 1
x_1_127 4.8604341154947178e+02
s_1_127 0
z_1_127 0
x_1_128 487.934738738928
s_1_128 0
z_1_128 0
x_1_129 0
s_1_129 9.2774934181943536e-01
z_1_129 1
x_1_130 0
s_1_130 1.0355163841377362e+00
z_1_130 1
x_1_131 0
s_1_131 1.5408647831063718e+00
z_1_131 1
x_1_132 4.8459692253544927e+02
s_1_132 0
z_1_132 0
x_1_133 0
s_1_133 1.8424649614462396e+00
z_1_133 1
x_1_134 0
s_1_134 1.8467706461669877e+00
z_1_134 1
x_1_135 0
s_1_135 1.7763090308726532e+00
z_1_135 1
x_1_136 0
s_1_136 1.6672988642385462e+00
z_1_136 1
x_1_137 0
s_1_137 1.2296607445168775e+00
z_1_137 1
x_1_138 4.8748127963487059e+02
s_1_138 0
z_1_138 0
x_1_139 0
s_1_139 1.4203565755160525e+00
z_1_139 1
x_1_140 4.8218365146266297e+02
s_1_140 0
z_1_140 0
x_1_141 4.8469922633448732e+02
s_1_141 0
z_1_141 0
x_1_142 0
s_1_142 9.3063801320386119e-01
z_1_142 1
x_1_143 4.8641779895615764e+02
s_1_143 0
z_1_143 0
x_1_144 4.8230756424504216e+02
s_1_144 0
z_1_144 0
x_1_145 4.8183190417359583e+02
s_1_145 0
z_1_145 0
x_1_146 481.605050844606
s_1_146 0
z_1_146 0
x_1_147 0
s_1_147 1.8586135894147446e+00
z_1_147 1
x_1_148 0
s_1_148 1.9889197556767613e+00
z_1_148 1
x_1_149 4.8287710379326018e+02
s_1_149 0
z_1_149 0
x_1_150 0
s_1_150 9.0405519223213560e-01
z_1_150 1
x_1_151 4.8700519067444839e+02
s_1_151 0
z_1_151 0
x_1_152 4.8206084254710004e+02
s_1_152 0
z_1_152 0
x_1_153 4.8632295251148753e+02
s_1_153 0
z_1_153 0
x_1_154 4.8637061866093427e+02
s_1_154 0
z_1_154 0
x_1_155 4.8337440979853272e+02
s_1_155 0
z_1_155 0
x_1_156 0
s_1_156 1.1482602240866981e+00
z_1_156 1
x_1_157 0
s_1_157 2.4381808547768742e+00
z_1_157 1
x_1_158 0
s_1_158 1.4569201866979711e+00
z_1_158 1
x_1_159 0
s_1_159 1.4929336239729309e+00
z_1_159 1
x_2_0 2.7645072608839581e+05
